<?xml version = "1.0" encoding="UTF-8" standalone="yes"?>
<CPLEXSolution version="1.2">
 <header
   problemName=""
   objectiveValue="19"
   solutionTypeValue="1"
   solutionTypeString="basic"
   solutionStatusValue="1"
   solutionStatusString="optimal"
   solutionMethodString="dual"
   primalFeasible="1"
   dualFeasible="1"
   simplexIterations="4"
   writeLevel="1"/>
 <quality
   epRHS="9.9999999999999995e-07"
   epOpt="9.9999999999999995e-07"
   maxPrimalInfeas="0"
   maxDualInfeas="0"
   maxPrimalResidual="0"
   maxDualResidual="0"
   maxX="13"
   maxPi="1"
   maxSlack="0"
   maxRedCost="1"
   kappa="7.5"/>
 <linearConstraints>
  <constraint index="0" status="LL" slack="0" dual="-0"/>
  <constraint index="1" status="LL" slack="0" dual="1"/>
  <constraint index="2" status="LL" slack="0" dual="-0"/>
  <constraint index="3" status="LL" slack="0" dual="-0"/>
  <constraint index="4" status="LL" slack="0" dual="1"/>
 </linearConstraints>
 <variables>
  <variable name="x01" index="0" status="UL" value="8" reducedCost="1"/>
  <variable name="x02" index="1" status="BS" value="11" reducedCost="0"/>
  <variable name="x14" index="2" status="BS" value="8" reducedCost="0"/>
  <variable name="x13" index="3" status="LL" value="0" reducedCost="0"/>
  <variable name="x12" index="4" status="LL" value="0" reducedCost="-1"/>
  <variable name="x23" index="5" status="UL" value="5" reducedCost="1"/>
  <variable name="x25" index="6" status="BS" value="6" reducedCost="0"/>
  <variable name="x34" index="7" status="BS" value="5" reducedCost="0"/>
  <variable name="x35" index="8" status="LL" value="0" reducedCost="-1"/>
  <variable name="x46" index="9" status="BS" value="13" reducedCost="0"/>
  <variable name="x56" index="10" status="UL" value="6" reducedCost="1"/>
 </variables>
 <objectiveValues>
  <objective index="0" name="" value="19"/>
 </objectiveValues>
</CPLEXSolution>
